p edge 120
e 0 14
e 0 20
e 0 21
e 0 40
e 0 45
e 0 64
e 0 91
e 1 2
e 1 3
e 1 4
e 1 16
e 1 83
e 1 119
e 2 16
e 2 83
e 2 118
e 3 4
e 3 16
e 3 77
e 3 79
e 4 26
e 4 66
e 4 79
e 4 119
e 5 9
e 5 10
e 5 11
e 6 8
e 6 48
e 6 104
e 6 111
e 7 8
e 7 10
e 8 10
e 8 11
e 8 104
e 9 11
e 9 85
e 9 97
e 10 11
e 11 32
e 11 97
e 11 104
e 12 13
e 12 53
e 12 72
e 12 76
e 12 93
e 13 26
e 13 46
e 13 81
e 13 93
e 14 15
e 14 31
e 14 42
e 14 45
e 14 64
e 14 74
e 15 31
e 15 32
e 15 41
e 15 42
e 15 97
e 16 17
e 16 77
e 16 118
e 17 24
e 17 77
e 17 78
e 17 103
e 17 118
e 18 19
e 18 64
e 18 74
e 18 91
e 18 94
e 18 95
e 19 62
e 19 87
e 19 94
e 19 95
e 20 21
e 20 24
e 20 25
e 20 77
e 20 91
e 21 22
e 21 40
e 21 43
e 21 77
e 21 79
e 21 82
e 22 82
e 23 54
e 23 56
e 23 70
e 23 100
e 24 25
e 24 77
e 24 103
e 25 91
e 25 95
e 25 103
e 26 46
e 26 54
e 26 66
e 26 81
e 26 119
e 27 28
e 27 29
e 27 75
e 27 84
e 27 108
e 27 116
e 28 29
e 28 108
e 29 75
e 30 33
e 30 34
e 30 50
e 30 60
e 30 61
e 30 117
e 31 32
e 31 34
e 31 35
e 31 74
e 32 33
e 32 34
e 32 97
e 32 104
e 33 34
e 33 50
e 33 98
e 33 104
e 34 35
e 34 61
e 35 61
e 35 74
e 35 94
e 36 37
e 36 38
e 36 49
e 36 89
e 37 38
e 37 39
e 37 49
e 38 39
e 38 62
e 38 73
e 38 87
e 38 89
e 39 49
e 39 71
e 39 73
e 39 105
e 39 114
e 40 43
e 40 45
e 41 42
e 41 44
e 41 85
e 41 88
e 41 97
e 42 43
e 42 44
e 42 45
e 43 44
e 43 45
e 44 88
e 46 54
e 46 93
e 46 100
e 47 53
e 47 57
e 47 65
e 47 69
e 47 76
e 48 75
e 48 92
e 48 111
e 49 71
e 49 115
e 50 51
e 50 52
e 50 117
e 51 52
e 51 84
e 51 109
e 51 110
e 51 117
e 52 84
e 52 92
e 52 98
e 53 76
e 54 56
e 54 66
e 54 100
e 55 56
e 55 66
e 55 82
e 56 66
e 57 58
e 57 59
e 57 65
e 57 76
e 58 65
e 59 72
e 59 76
e 59 106
e 60 61
e 60 73
e 60 112
e 60 117
e 61 73
e 61 87
e 61 94
e 62 87
e 62 89
e 62 95
e 62 96
e 62 102
e 63 67
e 63 80
e 63 99
e 63 107
e 63 113
e 64 74
e 64 91
e 65 69
e 66 79
e 66 82
e 67 90
e 67 107
e 67 113
e 68 80
e 68 105
e 68 107
e 68 110
e 68 112
e 68 114
e 69 86
e 70 100
e 70 106
e 71 105
e 71 115
e 72 76
e 72 93
e 72 106
e 73 87
e 73 112
e 73 114
e 74 94
e 75 84
e 75 92
e 77 79
e 78 96
e 78 101
e 78 103
e 78 118
e 79 82
e 80 99
e 80 107
e 80 109
e 80 110
e 81 119
e 83 119
e 84 92
e 84 109
e 84 116
e 85 88
e 85 97
e 87 94
e 89 102
e 90 105
e 90 107
e 90 115
e 91 95
e 92 98
e 92 111
e 93 100
e 93 106
e 95 96
e 95 103
e 96 101
e 96 102
e 96 103
e 98 104
e 98 111
e 99 108
e 99 109
e 99 113
e 100 106
e 101 102
e 104 111
e 105 107
e 105 114
e 105 115
e 108 109
e 108 113
e 108 116
e 109 110
e 109 116
e 110 112
e 110 117
e 112 114
e 112 117
c k 6
